2929
875
908
2141
3427
4433
1036
1034
7907
1328
4194
7858
484
658
7978
7357
3975
10184
7683
3515
9684
9503
2564
4034
3125
4474
4187
3529
5133
4421
3086
2580
2999
9906
3886
5015
4362
680
8703
4540
4957
3788
9039
7423
8908
9835
4391
3421
3100
4176
4793
